Sc2C_R3m
1.0
        3.3958294392         0.0000000000         0.0000000000
       -1.6979147196         2.9408745612         0.0000000000
        0.0000000000         0.0000000000        16.4949607849
    C   Sc
    3    6
Cartesian
     0.000000000         1.960583099         1.222177583 
     1.697914770         0.980291550         6.720508823 
     0.000000000         0.000000000        12.218824333 
     1.697914770         0.980291550         2.478359300 
     0.000000000         0.000000000         7.976673827 
     0.000000000         1.960583099        13.475005067 
     0.000000000         0.000000000         0.0339874209 
     0.000000000         1.960583099         5.464327106 
     1.697914770         0.980291550        10.962641632 