Sc2C_R3m                                
1.0
        3.3958294392         0.0000000000         0.0000000000
       -1.6979147196         2.9408745612         0.0000000000
        0.0000000000         0.0000000000        25.0000000000
    C   Sc
    2    4
Cartesian
     0.000000000         1.960583099         1.216395851
     1.697914770         0.980291550         6.794258952
     0.000000000         0.000000000         7.976440340
     1.697914770         0.980291550         2.532016486
     0.000000000         0.000000000         0.034205566
     0.000000000         1.960583099         5.478629470
